========================================================== 
File name: C:\DEGR\assets\definitions\MSRCPSP_Gen\200_40_64_5_C.def
Creation date: Wed May 03 10:46:25 CEST 2023
Website: http://imopse.ii.pwr.edu.pl/ 
Reference: 
Myszkowski P. B., Skowronski M. E., Olech L., Oslizlo K., 
Hybrid Ant Colony Optimization in solving Multi-Skill Resource-Constrained Project Scheduling Problem, 
Soft Computing, DOI: DOI 10.1007/s00500-014-1455-x 
========================================================== 
General characteristics: 
Tasks: 200
Resources: 40
Precedence relations: 64
Number of skill types: 5
========================================================== 
ResourceID 	 Salary 	 Skills 
1	 	 	21.8	 	 Q2: 3 	  Q4: 0 	  Q0: 0 	  Q3: 1 	 
2	 	 	79.1	 	 Q0: 2 	  Q3: 0 	  Q1: 0 	 
3	 	 	20.4	 	 Q3: 1 	  Q0: 2 	 
4	 	 	15.2	 	 Q1: 3 	  Q4: 1 	  Q3: 2 	 
5	 	 	14.9	 	 Q4: 0 	  Q2: 1 	 
6	 	 	26.2	 	 Q1: 1 	  Q4: 1 	  Q3: 3 	 
7	 	 	31.8	 	 Q2: 1 	  Q4: 0 	  Q3: 2 	  Q1: 0 	 
8	 	 	53.8	 	 Q4: 1 	 
9	 	 	52.5	 	 Q4: 0 	 
10	 	 	73.6	 	 Q1: 3 	 
11	 	 	69.2	 	 Q4: 3 	  Q2: 1 	  Q3: 2 	  Q0: 3 	 
12	 	 	13.7	 	 Q3: 1 	 
13	 	 	15.1	 	 Q2: 0 	  Q1: 1 	  Q4: 3 	  Q0: 0 	 
14	 	 	66.6	 	 Q3: 3 	  Q4: 2 	  Q2: 0 	  Q0: 2 	 
15	 	 	71.9	 	 Q4: 2 	  Q3: 0 	 
16	 	 	75.3	 	 Q1: 0 	  Q2: 3 	  Q0: 0 	  Q3: 2 	 
17	 	 	26.4	 	 Q0: 3 	  Q3: 3 	  Q4: 2 	  Q2: 0 	 
18	 	 	71.2	 	 Q0: 2 	  Q1: 0 	 
19	 	 	80.0	 	 Q0: 1 	 
20	 	 	19.4	 	 Q3: 2 	  Q4: 1 	 
21	 	 	13.9	 	 Q3: 1 	 
22	 	 	61.4	 	 Q4: 0 	 
23	 	 	52.1	 	 Q0: 2 	 
24	 	 	59.8	 	 Q4: 2 	 
25	 	 	49.4	 	 Q4: 2 	  Q1: 1 	  Q3: 3 	  Q2: 1 	 
26	 	 	69.7	 	 Q1: 1 	  Q3: 2 	 
27	 	 	82.0	 	 Q0: 3 	 
28	 	 	98.9	 	 Q2: 3 	 
29	 	 	41.7	 	 Q3: 0 	  Q4: 1 	  Q1: 2 	  Q2: 0 	 
30	 	 	48.7	 	 Q2: 2 	  Q3: 3 	  Q4: 2 	  Q0: 2 	 
31	 	 	44.8	 	 Q0: 2 	  Q3: 2 	  Q2: 1 	 
32	 	 	24.4	 	 Q2: 0 	  Q3: 1 	 
33	 	 	51.1	 	 Q1: 3 	  Q4: 0 	  Q2: 2 	 
34	 	 	26.2	 	 Q0: 3 	  Q4: 3 	 
35	 	 	15.0	 	 Q0: 3 	  Q1: 2 	  Q3: 3 	 
36	 	 	16.7	 	 Q1: 2 	  Q4: 3 	  Q2: 1 	 
37	 	 	44.1	 	 Q1: 2 	  Q4: 2 	  Q0: 2 	 
38	 	 	32.6	 	 Q4: 3 	  Q2: 1 	  Q3: 1 	  Q0: 1 	 
39	 	 	75.0	 	 Q0: 3 	  Q3: 1 	  Q4: 2 	 
40	 	 	16.9	 	 Q3: 1 	  Q2: 0 	 
========================================================== 
TaskID 	 Duration 	 Skill 	 Predecessor IDs 
1	39	Q2:	3
2	32	Q2:	1
3	35	Q4:	3
4	38	Q0:	2
5	24	Q4:	2
6	34	Q2:	0
7	37	Q4:	0
8	35	Q0:	3
9	22	Q0:	0
10	40	Q2:	2
11	15	Q1:	1
12	28	Q2:	1
13	32	Q1:	1
14	40	Q3:	2	12
15	16	Q1:	0
16	24	Q1:	2
17	31	Q0:	3
18	39	Q2:	1
19	36	Q4:	3
20	29	Q3:	0
21	12	Q3:	3
22	26	Q2:	2
23	34	Q4:	3
24	33	Q0:	2
25	17	Q3:	2
26	37	Q4:	3
27	27	Q0:	3
28	15	Q2:	3
29	37	Q3:	2
30	11	Q2:	0
31	34	Q4:	2	9
32	25	Q3:	3
33	15	Q1:	3
34	23	Q1:	2
35	22	Q4:	2
36	21	Q2:	0
37	17	Q3:	2
38	25	Q3:	1
39	36	Q0:	2
40	32	Q3:	0
41	23	Q3:	3	25
42	23	Q3:	0
43	27	Q0:	2
44	33	Q3:	0
45	34	Q1:	0
46	26	Q1:	1
47	31	Q2:	2
48	23	Q4:	2
49	19	Q0:	0
50	34	Q3:	2
51	37	Q4:	1
52	33	Q4:	3
53	35	Q2:	1
54	14	Q2:	3
55	22	Q3:	1	38
56	26	Q2:	3
57	36	Q2:	0
58	18	Q0:	3
59	11	Q3:	2
60	32	Q4:	2	50
61	23	Q1:	3
62	40	Q3:	3
63	15	Q2:	0	28
64	25	Q0:	0
65	25	Q4:	0
66	40	Q2:	1
67	34	Q3:	0
68	29	Q4:	2	64
69	35	Q4:	0
70	13	Q0:	3
71	40	Q1:	1
72	37	Q4:	2
73	13	Q4:	2
74	26	Q4:	3
75	15	Q4:	3
76	24	Q4:	0
77	31	Q2:	3	33
78	11	Q4:	0
79	20	Q0:	2
80	36	Q4:	3
81	19	Q2:	0
82	24	Q4:	1	31
83	23	Q4:	2
84	24	Q4:	1
85	33	Q0:	3
86	33	Q3:	3
87	15	Q1:	1
88	28	Q0:	0
89	9	Q0:	0
90	10	Q1:	0
91	26	Q2:	3
92	20	Q4:	2
93	11	Q1:	0
94	37	Q1:	1
95	19	Q4:	1	93	64
96	31	Q3:	3	89
97	12	Q2:	2
98	32	Q3:	2	17
99	16	Q0:	3
100	37	Q2:	1
101	26	Q1:	2
102	36	Q1:	1
103	14	Q3:	3
104	17	Q3:	3
105	11	Q4:	0
106	14	Q4:	0
107	38	Q0:	3	12
108	25	Q0:	1	25
109	20	Q0:	3	37
110	20	Q3:	2
111	31	Q3:	0	3
112	20	Q4:	1	104
113	34	Q1:	0	105
114	37	Q3:	3
115	9	Q1:	1
116	29	Q2:	1
117	36	Q1:	2	77
118	14	Q4:	2
119	33	Q2:	2	66
120	38	Q2:	2	72
121	36	Q2:	1	76
122	32	Q2:	0
123	36	Q4:	2	57
124	14	Q2:	3
125	12	Q0:	3
126	22	Q2:	1
127	30	Q0:	0	97
128	20	Q2:	3	123
129	12	Q2:	2	72	53
130	17	Q0:	2
131	19	Q3:	3
132	13	Q4:	1
133	18	Q3:	1	23
134	19	Q3:	2	4
135	22	Q2:	3
136	10	Q3:	3
137	22	Q1:	2	32
138	32	Q4:	3
139	29	Q0:	3
140	31	Q0:	3	4
141	33	Q3:	0
142	39	Q0:	3	46
143	21	Q1:	3	116	66
144	20	Q4:	2	11
145	29	Q1:	0	19
146	26	Q0:	0
147	20	Q2:	3
148	36	Q3:	0
149	38	Q4:	0
150	21	Q3:	3
151	11	Q4:	0	6
152	36	Q0:	0
153	23	Q0:	2
154	12	Q1:	2	50
155	9	Q0:	1	28
156	10	Q0:	3
157	38	Q4:	1	75
158	17	Q0:	0
159	14	Q3:	3
160	21	Q2:	0	92
161	24	Q4:	2
162	29	Q4:	2
163	10	Q3:	0
164	29	Q0:	2
165	23	Q0:	2	74
166	36	Q3:	0
167	18	Q1:	2
168	24	Q3:	2	98
169	31	Q4:	3
170	15	Q4:	0
171	24	Q1:	1	25
172	10	Q0:	0
173	9	Q3:	0
174	39	Q4:	0
175	34	Q4:	0	84
176	24	Q1:	3	76
177	29	Q0:	3	17
178	12	Q3:	0
179	35	Q3:	3	132
180	40	Q1:	2
181	38	Q0:	0
182	14	Q4:	3	171
183	39	Q2:	0
184	38	Q3:	1	179	15
185	39	Q0:	0	175
186	22	Q4:	2	73
187	20	Q4:	1	77
188	37	Q1:	0
189	16	Q2:	2	135	106
190	34	Q1:	2	2
191	37	Q1:	3	117	128
192	38	Q2:	3
193	13	Q2:	2
194	18	Q1:	3	38
195	16	Q4:	2
196	31	Q3:	2
197	11	Q0:	1	137
198	37	Q1:	3
199	31	Q2:	3	55
200	28	Q3:	0	174
========================================================== 